p cnf 14 55
2 6 8 0
7 11 14 0
3 9 12 0
2 10 13 0
4 8 11 0
5 9 12 0
7 8 14 0
6 9 0
1 5 13 0
1 4 10 0
4 5 7 0
1 2 6 0
3 10 12 0
3 11 13 0
14 0
-2 -6 0
-2 -8 0
-6 -8 0
-7 -11 0
-7 -14 0
-11 -14 0
-3 -9 0
-3 -12 0
-9 -12 0
-2 -10 0
-2 -13 0
-10 -13 0
-4 -8 0
-4 -11 0
-8 -11 0
-5 -9 0
-5 -12 0
-9 -12 0
-7 -8 0
-7 -14 0
-8 -14 0
-6 -9 0
-1 -5 0
-1 -13 0
-5 -13 0
-1 -4 0
-1 -10 0
-4 -10 0
-4 -5 0
-4 -7 0
-5 -7 0
-1 -2 0
-1 -6 0
-2 -6 0
-3 -10 0
-3 -12 0
-10 -12 0
-3 -11 0
-3 -13 0
-11 -13 0
